c colouring generated by benchmark framework
p edge 300 21633
v 1 24
v 2 34
v 3 17
v 4 18
v 5 19
v 6 6
v 7 2
v 8 43
v 9 12
v 10 23
v 11 39
v 12 5
v 13 38
v 14 18
v 15 16
v 16 21
v 17 7
v 18 5
v 19 0
v 20 22
v 21 20
v 22 25
v 23 7
v 24 9
v 25 12
v 26 23
v 27 7
v 28 0
v 29 26
v 30 12
v 31 1
v 32 5
v 33 26
v 34 10
v 35 32
v 36 0
v 37 40
v 38 31
v 39 27
v 40 12
v 41 21
v 42 32
v 43 23
v 44 12
v 45 4
v 46 15
v 47 25
v 48 16
v 49 43
v 50 31
v 51 31
v 52 28
v 53 4
v 54 38
v 55 28
v 56 34
v 57 12
v 58 20
v 59 3
v 60 15
v 61 22
v 62 35
v 63 30
v 64 35
v 65 4
v 66 26
v 67 24
v 68 20
v 69 29
v 70 23
v 71 36
v 72 0
v 73 26
v 74 5
v 75 18
v 76 8
v 77 20
v 78 6
v 79 24
v 80 14
v 81 15
v 82 7
v 83 1
v 84 33
v 85 19
v 86 13
v 87 13
v 88 37
v 89 42
v 90 6
v 91 36
v 92 35
v 93 14
v 94 10
v 95 25
v 96 6
v 97 15
v 98 36
v 99 26
v 100 12
v 101 32
v 102 5
v 103 34
v 104 5
v 105 18
v 106 44
v 107 2
v 108 45
v 109 38
v 110 16
v 111 30
v 112 23
v 113 31
v 114 16
v 115 7
v 116 8
v 117 0
v 118 22
v 119 1
v 120 9
v 121 7
v 122 42
v 123 8
v 124 8
v 125 25
v 126 21
v 127 2
v 128 5
v 129 21
v 130 4
v 131 30
v 132 39
v 133 40
v 134 19
v 135 37
v 136 9
v 137 22
v 138 25
v 139 22
v 140 27
v 141 11
v 142 37
v 143 15
v 144 18
v 145 17
v 146 24
v 147 34
v 148 30
v 149 29
v 150 30
v 151 35
v 152 4
v 153 1
v 154 11
v 155 43
v 156 37
v 157 33
v 158 12
v 159 25
v 160 2
v 161 41
v 162 19
v 163 13
v 164 39
v 165 15
v 166 11
v 167 21
v 168 3
v 169 41
v 170 19
v 171 39
v 172 27
v 173 25
v 174 31
v 175 32
v 176 20
v 177 21
v 178 41
v 179 27
v 180 12
v 181 3
v 182 21
v 183 42
v 184 0
v 185 29
v 186 4
v 187 28
v 188 21
v 189 21
v 190 37
v 191 41
v 192 39
v 193 44
v 194 3
v 195 14
v 196 9
v 197 36
v 198 17
v 199 8
v 200 33
v 201 27
v 202 10
v 203 13
v 204 24
v 205 4
v 206 17
v 207 10
v 208 44
v 209 0
v 210 16
v 211 28
v 212 6
v 213 40
v 214 28
v 215 8
v 216 10
v 217 11
v 218 10
v 219 33
v 220 32
v 221 7
v 222 20
v 223 14
v 224 29
v 225 0
v 226 0
v 227 15
v 228 20
v 229 19
v 230 22
v 231 6
v 232 28
v 233 17
v 234 13
v 235 42
v 236 22
v 237 30
v 238 16
v 239 38
v 240 27
v 241 3
v 242 22
v 243 27
v 244 2
v 245 17
v 246 13
v 247 33
v 248 24
v 249 9
v 250 1
v 251 39
v 252 37
v 253 30
v 254 4
v 255 9
v 256 8
v 257 38
v 258 10
v 259 2
v 260 32
v 261 1
v 262 11
v 263 31
v 264 26
v 265 32
v 266 14
v 267 26
v 268 34
v 269 16
v 270 14
v 271 18
v 272 11
v 273 24
v 274 3
v 275 14
v 276 36
v 277 2
v 278 41
v 279 5
v 280 34
v 281 33
v 282 19
v 283 29
v 284 16
v 285 38
v 286 29
v 287 19
v 288 31
v 289 29
v 290 18
v 291 11
v 292 35
v 293 40
v 294 9
v 295 8
v 296 23
v 297 39
v 298 34
v 299 14
v 300 13
